# Objective value = 1.9328255577614095e+03
x[0] 0
x[1] 1
x[2] 0
x[3] 1
x[4] 1
x[5] 0
x[6] 1
x[7] 1
x[8] 1
x[9] 0
x[10] 0
x[11] 0
x[12] 0
x[13] 0
x[14] 1
x[15] 1
x[16] 1
x[17] 0
x[18] 0
x[19] 1
x[20] 0
x[21] 1
x[22] 0
x[23] 0
x[24] 0
x[25] 0
x[26] 0
x[27] 0
x[28] 0
x[29] 0
x[30] 1
x[31] 0
x[32] 0
x[33] 1
x[34] 0
x[35] 1
x[36] 1
x[37] 1
x[38] 0
x[39] 1
x[40] 1
x[41] 1
x[42] 1
x[43] 0
x[44] 1
x[45] 1
x[46] 0
x[47] 0
x[48] 0
x[49] 0
x[50] 1
x[51] 1
x[52] 0
x[53] 1
x[54] 1
x[55] 1
x[56] 1
x[57] 1
x[58] 1
x[59] 1
x[60] 0
x[61] 1
x[62] 0
x[63] 1
x[64] 1
x[65] 1
x[66] 0
x[67] 1
x[68] 1
x[69] 0
x[70] 1
x[71] 1
x[72] 1
x[73] 1
x[74] 0
x[75] 0
x[76] 0
x[77] 0
x[78] 1
x[79] 1
x[80] 0
x[81] 0
x[82] 0
x[83] 1
x[84] 0
x[85] 0
x[86] 1
x[87] 1
x[88] 0
x[89] 1
x[90] 1
x[91] 0
x[92] 0
x[93] 1
x[94] 0
x[95] 0
x[96] 1
x[97] 0
x[98] 0
x[99] 1
x[100] 0
x[101] 1
x[102] 1
x[103] 1
x[104] 0
x[105] 1
x[106] 0
x[107] 1
x[108] 0
x[109] 1
x[110] 0
x[111] 1
x[112] 1
x[113] 1
x[114] 0
x[115] 0
x[116] 0
x[117] 0
x[118] 1
x[119] 1
x[120] 0
x[121] 0
x[122] 0
x[123] 1
x[124] 1
x[125] 1
x[126] 0
x[127] 0
x[128] 0
x[129] 1
x[130] 1
x[131] 0
x[132] 1
x[133] 1
x[134] 1
x[135] 1
x[136] 0
x[137] 1
x[138] 1
x[139] 1
x[140] 1
x[141] 0
x[142] 1
x[143] 1
x[144] 1
x[145] 0
x[146] 1
x[147] 1
x[148] 1
x[149] 0
x[150] 1
x[151] 1
x[152] 0
x[153] 1
x[154] 0
x[155] 1
x[156] 1
x[157] 1
x[158] 1
x[159] 0
x[160] 0
x[161] 1
x[162] 0
x[163] 0
x[164] 0
x[165] 1
x[166] 1
x[167] 1
x[168] 0
x[169] 0
x[170] 0
x[171] 0
x[172] 0
x[173] 0
x[174] 1
x[175] 1
x[176] 1
x[177] 1
x[178] 1
x[179] 0
x[180] 1
x[181] 1
x[182] 1
x[183] 1
x[184] 0
x[185] 0
x[186] 0
x[187] 1
x[188] 0
x[189] 0
x[190] 0
x[191] 1
x[192] 1
x[193] 1
x[194] 1
x[195] 1
x[196] 1
x[197] 0
x[198] 1
x[199] 1
x[200] 1
x[201] 1
x[202] 0
x[203] 1
x[204] 1
x[205] 0
x[206] 1
x[207] 1
x[208] 0
x[209] 1
x[210] 0
x[211] 1
x[212] 1
x[213] 0
x[214] 1
x[215] 1
x[216] 1
x[217] 1
x[218] 0
x[219] 1
x[220] 1
x[221] 0
x[222] 1
x[223] 1
x[224] 0
x[225] 0
x[226] 1
x[227] 1
x[228] 0
x[229] 0
x[230] 1
x[231] 0
x[232] 0
x[233] 1
x[234] 0
x[235] 0
x[236] 0
x[237] 0
x[238] 0
x[239] 0
x[240] 1
x[241] 1
x[242] 1
x[243] 1
x[244] 1
x[245] 0
x[246] 0
x[247] 1
x[248] 1
x[249] 1
x[250] 1
x[251] 1
x[252] 1
x[253] 0
x[254] 0
x[255] 0
x[256] 0
x[257] 1
x[258] 1
x[259] 1
x[260] 0
x[261] 1
x[262] 0
x[263] 1
x[264] 0
x[265] 1
x[266] 0
x[267] 1
x[268] 0
x[269] 0
x[270] 1
x[271] 0
x[272] 0
x[273] 1
x[274] 1
x[275] 1
x[276] 0
x[277] 0
x[278] 0
x[279] 0
x[280] 0
x[281] 0
x[282] 1
x[283] 1
x[284] 0
x[285] 1
x[286] 1
x[287] 0
x[288] 0
x[289] 0
x[290] 1
x[291] 1
x[292] 0
x[293] 1
x[294] 1
x[295] 0
x[296] 1
x[297] 1
x[298] 1
x[299] 1
x[300] 1
x[301] 0
x[302] 0
x[303] 0
x[304] 0
x[305] 1
x[306] 1
x[307] 0
x[308] 1
x[309] 1
x[310] 1
x[311] 1
x[312] 0
x[313] 1
x[314] 0
x[315] 1
x[316] 1
x[317] 1
x[318] 0
x[319] 0
x[320] 0
x[321] 0
x[322] 1
x[323] 0
x[324] 0
x[325] 1
x[326] 1
x[327] 1
x[328] 0
x[329] 0
x[330] 0
x[331] 1
x[332] 1
x[333] 0
x[334] 0
x[335] 0
x[336] 0
x[337] 1
x[338] 1
x[339] 0
x[340] 0
x[341] 0
x[342] 1
x[343] 0
x[344] 0
x[345] 1
x[346] 1
x[347] 1
x[348] 0
x[349] 0
x[350] 1
x[351] 1
x[352] 1
x[353] 0
x[354] 1
x[355] 1
x[356] 0
x[357] 1
x[358] 0
x[359] 0
x[360] 0
x[361] 0
x[362] 0
x[363] 1
x[364] 0
x[365] 1
x[366] 0
x[367] 1
x[368] 0
x[369] 1
x[370] 1
x[371] 1
x[372] 1
x[373] 1
x[374] 1
x[375] 1
x[376] 0
x[377] 0
x[378] 1
x[379] 0
x[380] 1
x[381] 1
x[382] 1
x[383] 1
x[384] 0
x[385] 1
x[386] 0
x[387] 1
x[388] 1
x[389] 1
x[390] 1
x[391] 0
x[392] 0
x[393] 1
x[394] 1
x[395] 1
x[396] 0
x[397] 1
x[398] 1
x[399] 1
x[400] 0
x[401] 0
x[402] 1
x[403] 0
x[404] 1
x[405] 1
x[406] 0
x[407] 1
x[408] 1
x[409] 1
x[410] 0
x[411] 1
x[412] 1
x[413] 1
x[414] 1
x[415] 1
x[416] 0
x[417] 1
x[418] 0
x[419] 1
x[420] 1
x[421] 0
x[422] 0
x[423] 1
x[424] 1
x[425] 1
x[426] 0
x[427] 0
x[428] 0
x[429] 1
x[430] 1
x[431] 0
x[432] 1
x[433] 0
x[434] 1
x[435] 0
x[436] 0
x[437] 1
x[438] 0
x[439] 0
x[440] 0
x[441] 0
x[442] 1
x[443] 0
x[444] 1
x[445] 0
x[446] 1
x[447] 1
x[448] 0
x[449] 1
x[450] 0
x[451] 0
x[452] 0
x[453] 1
x[454] 1
x[455] 1
x[456] 0
x[457] 1
x[458] 0
x[459] 1
x[460] 0
x[461] 1
x[462] 1
x[463] 1
x[464] 1
x[465] 1
x[466] 1
x[467] 1
x[468] 1
x[469] 0
x[470] 0
x[471] 1
x[472] 1
x[473] 1
x[474] 1
x[475] 0
x[476] 1
x[477] 1
x[478] 1
x[479] 1
x[480] 0
x[481] 0
x[482] 0
x[483] 1
x[484] 0
x[485] 1
x[486] 1
x[487] 1
x[488] 1
x[489] 1
x[490] 0
x[491] 0
x[492] 1
x[493] 0
x[494] 0
x[495] 0
x[496] 1
x[497] 1
x[498] 0
x[499] 1
x[500] 0
x[501] 1
x[502] 0
x[503] 0
x[504] 1
x[505] 0
x[506] 1
x[507] 1
x[508] 0
x[509] 1
x[510] 0
x[511] 0
x[512] 1
x[513] 1
x[514] 1
x[515] 1
x[516] 1
x[517] 1
x[518] 1
x[519] 0
x[520] 1
x[521] 1
x[522] 0
x[523] 1
x[524] 0
x[525] 1
x[526] 1
x[527] 0
x[528] 1
x[529] 1
x[530] 1
x[531] 1
x[532] 0
x[533] 0
x[534] 0
x[535] 1
x[536] 1
x[537] 0
x[538] 0
x[539] 1
x[540] 1
x[541] 1
x[542] 0
x[543] 0
x[544] 1
x[545] 0
x[546] 1
x[547] 0
x[548] 1
x[549] 1
x[550] 1
x[551] 1
x[552] 0
x[553] 0
x[554] 1
x[555] 0
x[556] 0
x[557] 1
x[558] 0
x[559] 0
x[560] 1
x[561] 0
x[562] 1
x[563] 0
x[564] 1
x[565] 0
x[566] 1
x[567] 1
x[568] 1
x[569] 1
x[570] 0
x[571] 1
x[572] 1
x[573] 1
x[574] 0
x[575] 1
x[576] 1
x[577] 1
x[578] 1
x[579] 1
x[580] 1
x[581] 1
x[582] 0
x[583] 0
x[584] 0
x[585] 1
x[586] 1
x[587] 1
x[588] 0
x[589] 0
x[590] 1
x[591] 1
x[592] 0
x[593] 0
x[594] 1
x[595] 0
x[596] 0
x[597] 0
x[598] 1
x[599] 1
x[600] 1
x[601] 1
x[602] 0
x[603] 1
x[604] 1
x[605] 0
x[606] 1
x[607] 1
x[608] 1
x[609] 0
x[610] 1
x[611] 1
x[612] 1
x[613] 0
x[614] 0
x[615] 0
x[616] 1
x[617] 1
x[618] 1
x[619] 1
x[620] 1
x[621] 1
x[622] 1
x[623] 1
x[624] 0
x[625] 1
x[626] 1
x[627] 1
x[628] 0
x[629] 0
x[630] 1
x[631] 1
x[632] 1
x[633] 1
x[634] 0
x[635] 1
x[636] 1
x[637] 1
x[638] 1
x[639] 1
x[640] 1
x[641] 1
x[642] 1
x[643] 1
x[644] 0
x[645] 0
x[646] 1
x[647] 1
x[648] 0
x[649] 0
x[650] 1
x[651] 0
x[652] 1
x[653] 1
x[654] 0
x[655] 1
x[656] 1
x[657] 1
x[658] 1
x[659] 1
x[660] 1
x[661] 1
x[662] 1
x[663] 1
x[664] 0
x[665] 0
x[666] 1
x[667] 1
x[668] 1
x[669] 0
x[670] 0
x[671] 0
x[672] 1
x[673] 0
x[674] 1
x[675] 0
x[676] 1
x[677] 0
x[678] 0
x[679] 0
x[680] 0
x[681] 0
x[682] 1
x[683] 1
x[684] 0
x[685] 1
x[686] 0
x[687] 0
x[688] 0
x[689] 0
x[690] 0
x[691] 1
x[692] 0
x[693] 1
x[694] 0
x[695] 1
x[696] 0
x[697] 1
x[698] 1
x[699] 1
x[700] 0
x[701] 1
x[702] 0
x[703] 1
x[704] 0
x[705] 1
x[706] 0
x[707] 0
x[708] 0
x[709] 0
x[710] 1
x[711] 0
x[712] 0
x[713] 1
x[714] 0
x[715] 1
x[716] 1
x[717] 1
x[718] 1
x[719] 0
x[720] 0
x[721] 1
x[722] 1
x[723] 1
x[724] 1
x[725] 0
x[726] 0
x[727] 1
x[728] 0
x[729] 1
x[730] 0
x[731] 0
x[732] 1
x[733] 0
x[734] 1
x[735] 0
x[736] 0
x[737] 0
x[738] 1
x[739] 0
x[740] 1
x[741] 1
x[742] 1
x[743] 0
x[744] 1
x[745] 1
x[746] 1
x[747] 1
x[748] 0
x[749] 0
x[750] 0
x[751] 1
x[752] 0
x[753] 0
x[754] 0
x[755] 0
x[756] 0
x[757] 0
x[758] 1
x[759] 1
x[760] 0
x[761] 0
x[762] 0
x[763] 1
x[764] 1
x[765] 0
x[766] 1
x[767] 0
x[768] 1
x[769] 1
x[770] 1
x[771] 0
x[772] 0
x[773] 1
x[774] 0
x[775] 0
x[776] 0
x[777] 1
x[778] 0
x[779] 0
x[780] 0
x[781] 0
x[782] 0
x[783] 0
x[784] 1
x[785] 0
x[786] 0
x[787] 1
x[788] 1
x[789] 0
x[790] 1
x[791] 0
x[792] 0
x[793] 0
x[794] 0
x[795] 0
x[796] 1
x[797] 1
x[798] 1
x[799] 0
x[800] 1
x[801] 0
x[802] 1
x[803] 0
x[804] 0
x[805] 1
x[806] 0
x[807] 1
x[808] 1
x[809] 0
x[810] 0
x[811] 0
x[812] 1
x[813] 1
x[814] 1
x[815] 1
x[816] 1
x[817] 1
x[818] 0
x[819] 1
x[820] 0
x[821] 0
x[822] 0
x[823] 1
x[824] 1
x[825] 0
x[826] 1
x[827] 0
x[828] 0
x[829] 0
x[830] 0
x[831] 1
x[832] 1
x[833] 1
x[834] 1
x[835] 1
x[836] 1
x[837] 0
x[838] 1
x[839] 1
x[840] 1
x[841] 1
x[842] 0
x[843] 0
x[844] 0
x[845] 1
x[846] 0
x[847] 1
x[848] 0
x[849] 1
x[850] 1
x[851] 1
x[852] 1
x[853] 0
x[854] 1
x[855] 0
x[856] 1
x[857] 1
x[858] 0
x[859] 0
x[860] 1
x[861] 0
x[862] 0
x[863] 0
x[864] 0
x[865] 0
x[866] 1
x[867] 1
x[868] 1
x[869] 1
x[870] 0
x[871] 1
x[872] 0
x[873] 0
x[874] 1
x[875] 0
x[876] 0
x[877] 0
x[878] 0
x[879] 1
x[880] 1
x[881] 1
x[882] 1
x[883] 1
x[884] 0
x[885] 1
x[886] 1
x[887] 0
x[888] 0
x[889] 1
x[890] 1
x[891] 1
x[892] 1
x[893] 1
x[894] 0
x[895] 1
x[896] 0
x[897] 1
x[898] 0
x[899] 1
x[900] 1
x[901] 1
x[902] 1
x[903] 1
x[904] 0
x[905] 1
x[906] 0
x[907] 1
x[908] 1
x[909] 0
x[910] 0
x[911] 1
x[912] 0
x[913] 1
x[914] 1
x[915] 1
x[916] 1
x[917] 1
x[918] 1
x[919] 1
x[920] 1
x[921] 0
x[922] 0
x[923] 1
x[924] 0
x[925] 1
x[926] 0
x[927] 0
x[928] 0
x[929] 0
x[930] 0
x[931] 0
x[932] 0
x[933] 1
x[934] 0
x[935] 1
x[936] 0
x[937] 0
x[938] 0
x[939] 1
x[940] 0
x[941] 1
x[942] 1
x[943] 0
x[944] 1
x[945] 1
x[946] 0
x[947] 1
x[948] 1
x[949] 1
x[950] 1
x[951] 1
x[952] 1
x[953] 0
x[954] 1
x[955] 0
x[956] 1
x[957] 1
x[958] 0
x[959] 0
x[960] 1
x[961] 1
x[962] 0
x[963] 0
x[964] 1
x[965] 1
x[966] 1
x[967] 1
x[968] 1
x[969] 1
x[970] 1
x[971] 1
x[972] 1
x[973] 1
x[974] 0
x[975] 1
x[976] 1
x[977] 0
x[978] 1
x[979] 0
x[980] 1
x[981] 0
x[982] 0
x[983] 0
x[984] 0
x[985] 1
x[986] 1
x[987] 0
x[988] 0
x[989] 0
x[990] 0
x[991] 1
x[992] 1
x[993] 1
x[994] 0
x[995] 1
x[996] 1
x[997] 0
x[998] 0
x[999] 0
